%%%%%%%%%%%%%%%%%%%%%%%%%%%%%%%%%%%%%%%%%%%%%%%%%%%%%%%%%%%%%%%%%%%%%%%%%
%FILE DATA:	Soccer Computational Problem for MiniZinc Models
%AUTHORS:	Robinson Duque, Alejandro Arbelaez, Juan Francisco Díaz
%CONTACT:  	robinson.duque@correounivalle.edu.co 
%LAST UPDATE:	May, 2018 
%ROUND ROBIN:2
%TEAMS:20
%PRESENT FIXTURE:26
%FIXTURES TO PLAY:12
%GAMES TO PLAY:120
%%%%%%%%%%%%%%%%%%%%%%%%%%%%%%%%%%%%%%%%%%%%%%%%%%%%%%%%%%%%%%%%%%%%%%%%%
%Number of teams:
n=20;

%For the purpose of our models, we offer two representations of the games to play, namely fixtures and games to play:

%Fixtures to play:
%fixtures=[|0,1,1,1,1,1,1,1,0,0,0,0,0,1,0,1,1,1,1,0
%|1,0,1,1,0,1,1,1,1,0,1,0,1,0,1,0,1,1,0,0
%|1,1,0,1,1,0,1,0,0,1,1,0,1,1,1,0,1,1,0,0
%|1,1,1,0,0,0,1,1,1,1,0,1,0,1,0,1,0,0,1,1
%|1,0,1,0,0,1,1,0,0,0,0,0,1,1,1,1,1,1,1,1
%|1,1,0,0,1,0,1,1,1,0,1,0,1,1,1,1,0,1,0,0
%|1,1,1,1,1,1,0,0,1,1,1,1,0,1,1,0,0,0,0,0
%|1,1,0,1,0,1,0,0,0,1,1,1,1,0,1,0,1,0,1,1
%|0,1,0,1,0,1,1,0,0,0,1,0,1,0,1,1,1,1,1,1
%|0,0,1,1,0,0,1,1,0,0,1,1,0,1,1,1,1,1,0,1
%|0,1,1,0,0,1,1,1,1,1,0,1,1,0,0,0,1,0,1,1
%|0,0,0,1,0,0,1,1,0,1,1,0,1,1,0,1,1,1,1,1
%|0,1,1,0,1,1,0,1,1,0,1,1,0,1,1,1,0,1,0,0
%|1,0,1,1,1,1,1,0,0,1,0,1,1,0,0,1,0,0,1,1
%|0,1,1,0,1,1,1,1,1,1,0,0,1,0,0,0,1,0,1,1
%|1,0,0,1,1,1,0,0,1,1,0,1,1,1,0,0,1,1,1,0
%|1,1,1,0,1,0,0,1,1,1,1,1,0,0,1,1,0,0,0,1
%|1,1,1,0,1,1,0,0,1,1,0,1,1,0,0,1,0,0,1,1
%|1,0,0,1,1,0,0,1,1,0,1,1,0,1,1,1,0,1,0,1
%|0,0,0,1,1,0,0,1,1,1,1,1,0,1,1,0,1,1,1,0|];

%Played Fixtures:
%PlayedFixtures=[|0,1,1,1,1,1,1,1,2,2,2,2,2,1,2,1,1,1,1,2
%|1,0,1,1,2,1,1,1,1,2,1,2,1,2,1,2,1,1,2,2
%|1,1,0,1,1,2,1,2,2,1,1,2,1,1,1,2,1,1,2,2
%|1,1,1,0,2,2,1,1,1,1,2,1,2,1,2,1,2,2,1,1
%|1,2,1,2,0,1,1,2,2,2,2,2,1,1,1,1,1,1,1,1
%|1,1,2,2,1,0,1,1,1,2,1,2,1,1,1,1,2,1,2,2
%|1,1,1,1,1,1,0,2,1,1,1,1,2,1,1,2,2,2,2,2
%|1,1,2,1,2,1,2,0,2,1,1,1,1,2,1,2,1,2,1,1
%|2,1,2,1,2,1,1,2,0,2,1,2,1,2,1,1,1,1,1,1
%|2,2,1,1,2,2,1,1,2,0,1,1,2,1,1,1,1,1,2,1
%|2,1,1,2,2,1,1,1,1,1,0,1,1,2,2,2,1,2,1,1
%|2,2,2,1,2,2,1,1,2,1,1,0,1,1,2,1,1,1,1,1
%|2,1,1,2,1,1,2,1,1,2,1,1,0,1,1,1,2,1,2,2
%|1,2,1,1,1,1,1,2,2,1,2,1,1,0,2,1,2,2,1,1
%|2,1,1,2,1,1,1,1,1,1,2,2,1,2,0,2,1,2,1,1
%|1,2,2,1,1,1,2,2,1,1,2,1,1,1,2,0,1,1,1,2
%|1,1,1,2,1,2,2,1,1,1,1,1,2,2,1,1,0,2,2,1
%|1,1,1,2,1,1,2,2,1,1,2,1,1,2,2,1,2,0,1,1
%|1,2,2,1,1,2,2,1,1,2,1,1,2,1,1,1,2,1,0,1
%|2,2,2,1,1,2,2,1,1,1,1,1,2,1,1,2,1,1,1,0|];

%Games to play:
games=[|2,1|3,1|3,2|4,1|4,2|4,3|5,1|5,3|6,1|6,2|6,5|7,1|7,2|7,3|7,4|7,5|7,6|8,1|8,2|8,4|8,6|9,2|9,4|9,6|9,7|10,3|10,4|10,7|10,8|11,2|11,3|11,6|11,7|11,8|11,9|11,10|12,4|12,7|12,8|12,10|12,11|13,2|13,3|13,5|13,6|13,8|13,9|13,11|13,12|14,1|14,3|14,4|14,5|14,6|14,7|14,10|14,12|14,13|15,2|15,3|15,5|15,6|15,7|15,8|15,9|15,10|15,13|16,1|16,4|16,5|16,6|16,9|16,10|16,12|16,13|16,14|17,1|17,2|17,3|17,5|17,8|17,9|17,10|17,11|17,12|17,15|17,16|18,1|18,2|18,3|18,5|18,6|18,9|18,10|18,12|18,13|18,16|19,1|19,4|19,5|19,8|19,9|19,11|19,12|19,14|19,15|19,16|19,18|20,4|20,5|20,8|20,9|20,10|20,11|20,12|20,14|20,15|20,17|20,18|20,19|];

%Played Games:
%PlayedGames=[|2,1|3,1|3,2|4,1|4,2|4,3|5,1|5,2|5,2|5,3|5,4|5,4|6,1|6,2|6,3|6,3|6,4|6,4|6,5|7,1|7,2|7,3|7,4|7,5|7,6|8,1|8,2|8,3|8,3|8,4|8,5|8,5|8,6|8,7|8,7|9,1|9,1|9,2|9,3|9,3|9,4|9,5|9,5|9,6|9,7|9,8|9,8|10,1|10,1|10,2|10,2|10,3|10,4|10,5|10,5|10,6|10,6|10,7|10,8|10,9|10,9|11,1|11,1|11,2|11,3|11,4|11,4|11,5|11,5|11,6|11,7|11,8|11,9|11,10|12,1|12,1|12,2|12,2|12,3|12,3|12,4|12,5|12,5|12,6|12,6|12,7|12,8|12,9|12,9|12,10|12,11|13,1|13,1|13,2|13,3|13,4|13,4|13,5|13,6|13,7|13,7|13,8|13,9|13,10|13,10|13,11|13,12|14,1|14,2|14,2|14,3|14,4|14,5|14,6|14,7|14,8|14,8|14,9|14,9|14,10|14,11|14,11|14,12|14,13|15,1|15,1|15,2|15,3|15,4|15,4|15,5|15,6|15,7|15,8|15,9|15,10|15,11|15,11|15,12|15,12|15,13|15,14|15,14|16,1|16,2|16,2|16,3|16,3|16,4|16,5|16,6|16,7|16,7|16,8|16,8|16,9|16,10|16,11|16,11|16,12|16,13|16,14|16,15|16,15|17,1|17,2|17,3|17,4|17,4|17,5|17,6|17,6|17,7|17,7|17,8|17,9|17,10|17,11|17,12|17,13|17,13|17,14|17,14|17,15|17,16|18,1|18,2|18,3|18,4|18,4|18,5|18,6|18,7|18,7|18,8|18,8|18,9|18,10|18,11|18,11|18,12|18,13|18,14|18,14|18,15|18,15|18,16|18,17|18,17|19,1|19,2|19,2|19,3|19,3|19,4|19,5|19,6|19,6|19,7|19,7|19,8|19,9|19,10|19,10|19,11|19,12|19,13|19,13|19,14|19,15|19,16|19,17|19,17|19,18|20,1|20,1|20,2|20,2|20,3|20,3|20,4|20,5|20,6|20,6|20,7|20,7|20,8|20,9|20,10|20,11|20,12|20,13|20,13|20,14|20,15|20,16|20,16|20,17|20,18|20,19|];

%Played Games - Win Results:
%% 0  0  0  1  0  0  0  0  0  2  2  1  0  1  0  0  1  1  0  0
%% 0  0  1  0  0  0  0  1  1  0  0  1  0  0  0  0  1  0  0  0
%% 0  0  0  0  1  0  0  0  0  0  0  0  0  0  0  0  0  0  0  0
%% 0  0  0  0  0  0  0  0  0  0  0  1  2  0  0  0  0  0  0  0
%% 0  0  0  0  0  0  0  0  0  0  0  0  0  0  1  0  0  0  0  0
%% 0  0  0  0  0  0  0  0  1  0  0  0  0  1  0  0  0  1  0  0
%% 0  1  1  1  1  0  0  2  0  0  1  0  2  1  1  1  0  0  0  2
%% 1  0  0  1  0  1  0  0  0  0  1  0  0  0  0  0  0  0  1  0
%% 0  0  0  0  0  0  0  0  0  0  0  0  0  0  0  0  0  1  1  0
%% 0  0  1  1  0  0  0  0  0  0  0  0  0  1  1  0  1  1  0  0
%% 0  0  0  0  0  0  0  0  0  0  0  0  0  0  0  0  0  0  0  0
%% 0  0  0  0  0  0  0  0  0  0  0  0  0  0  0  0  0  0  1  0
%% 0  0  0  0  1  0  0  0  0  0  0  0  0  1  0  0  0  0  0  0
%% 0  0  0  0  1  0  0  0  0  0  0  0  0  0  0  0  0  0  0  0
%% 0  0  0  0  0  0  0  0  1  0  0  0  0  0  0  0  0  0  0  0
%% 0  2  2  1  1  0  1  0  0  0  0  0  0  0  0  0  1  1  1  0
%% 0  0  1  0  0  0  0  0  1  0  1  0  2  0  0  0  0  0  0  0
%% 0  0  0  0  0  0  0  0  0  0  0  0  0  0  0  0  0  0  0  0
%% 0  0  0  0  0  0  0  0  0  0  0  0  0  0  0  0  0  0  0  0
%% 0  1  2  1  0  2  0  0  0  1  0  0  0  0  1  2  1  0  1  0
%Played Games - Tie Results:
%% 0  1  1  0  1  1  1  0  2  0  0  1  2  0  2  1  0  0  1  2
%% 1  0  0  1  2  1  0  0  0  2  1  1  1  2  1  0  0  1  2  1
%% 1  0  0  1  0  2  0  2  2  0  1  2  1  1  1  0  0  1  2  0
%% 0  1  1  0  2  2  0  0  1  0  2  0  0  1  2  0  2  2  1  0
%% 1  2  0  2  0  1  0  2  2  2  2  2  0  0  0  0  1  1  1  1
%% 1  1  2  2  1  0  1  0  0  2  1  2  1  0  1  1  2  0  2  0
%% 1  0  0  0  0  1  0  0  1  1  0  1  0  0  0  0  2  2  2  0
%% 0  0  2  0  2  0  0  0  2  1  0  1  1  2  1  2  1  2  0  1
%% 2  0  2  1  2  0  1  2  0  2  1  2  1  2  0  1  0  0  0  1
%% 0  2  0  0  2  2  1  1  2  0  1  1  2  0  0  1  0  0  2  0
%% 0  1  1  2  2  1  0  0  1  1  0  1  1  2  2  2  0  2  1  1
%% 1  1  2  0  2  2  1  1  2  1  1  0  1  1  2  1  1  1  0  1
%% 2  1  1  0  0  1  0  1  1  2  1  1  0  0  1  1  0  1  2  2
%% 0  2  1  1  0  0  0  2  2  0  2  1  0  0  2  1  2  2  1  1
%% 2  1  1  2  0  1  0  1  0  0  2  2  1  2  0  2  1  2  1  0
%% 1  0  0  0  0  1  0  2  1  1  2  1  1  1  2  0  0  0  0  0
%% 0  0  0  2  1  2  2  1  0  0  0  1  0  2  1  0  0  2  2  0
%% 0  1  1  2  1  0  2  2  0  0  2  1  1  2  2  0  2  0  1  1
%% 1  2  2  1  1  2  2  0  0  2  1  0  2  1  1  0  2  1  0  0
%% 2  1  0  0  1  0  0  1  1  0  1  1  2  1  0  0  0  1  0  0
%Played Games - Lose Results:
%% 0  0  0  0  0  0  0  1  0  0  0  0  0  0  0  0  0  0  0  0
%% 0  0  0  0  0  0  1  0  0  0  0  0  0  0  0  2  0  0  0  1
%% 0  1  0  0  0  0  1  0  0  1  0  0  0  0  0  2  1  0  0  2
%% 1  0  0  0  0  0  1  1  0  1  0  0  0  0  0  1  0  0  0  1
%% 0  0  1  0  0  0  1  0  0  0  0  0  1  1  0  1  0  0  0  0
%% 0  0  0  0  0  0  0  1  0  0  0  0  0  0  0  0  0  0  0  2
%% 0  0  0  0  0  0  0  0  0  0  0  0  0  0  0  1  0  0  0  0
%% 0  1  0  0  0  0  2  0  0  0  0  0  0  0  0  0  0  0  0  0
%% 0  1  0  0  0  1  0  0  0  0  0  0  0  0  1  0  1  0  0  0
%% 2  0  0  0  0  0  0  0  0  0  0  0  0  0  0  0  0  0  0  1
%% 2  0  0  0  0  0  1  1  0  0  0  0  0  0  0  0  1  0  0  0
%% 1  1  0  1  0  0  0  0  0  0  0  0  0  0  0  0  0  0  0  0
%% 0  0  0  2  0  0  2  0  0  0  0  0  0  0  0  0  2  0  0  0
%% 1  0  0  0  0  1  1  0  0  1  0  0  1  0  0  0  0  0  0  0
%% 0  0  0  0  1  0  1  0  0  1  0  0  0  0  0  0  0  0  0  1
%% 0  0  0  0  0  0  1  0  0  0  0  0  0  0  0  0  0  0  0  2
%% 1  1  0  0  0  0  0  0  0  1  0  0  0  0  0  1  0  0  0  1
%% 1  0  0  0  0  1  0  0  1  1  0  0  0  0  0  1  0  0  0  0
%% 0  0  0  0  0  0  0  1  1  0  0  1  0  0  0  1  0  0  0  1
%% 0  0  0  0  0  0  2  0  0  0  0  0  0  0  0  0  0  0  0  0

%%Initial points:
iPoints=[43, 32, 20, 26, 23, 29, 53, 33, 26, 35, 21, 25, 24, 23, 24, 43, 31, 21, 21, 48];

%%Initial positions:
%iPositions=[4, 7, 20, 11, 16, 9, 1, 6, 10, 5, 19, 12, 14, 15, 13, 3, 8, 18, 17, 2];

%%Position Constraints:
%numberPositionConstraints=2;

%%Total Fixtures:
%totalFixtures=38;

%%Fixtures to Play:
%fixturesToPlay=12;

%%Position Constraints Built With
%wantedPoints=[0, 0, 3, 1, 3, 1, 0, 1, 0, 3, 3, 3, 3, 1, 3, 3, 1, 3, 0, 1, 1, 1, 1, 0, 0, 0, 3, 1, 1, 1, 1, 1, 3, 3, 3, 1, 0, 0, 0, 0, 1, 1, 1, 1, 1, 1, 0, 1, 0, 1, 0, 3, 0, 1, 1, 0, 3, 3, 1, 0, 1, 1, 0, 1, 1, 0, 3, 3, 3, 1, 1, 1, 3, 3, 3, 0, 1, 1, 1, 1, 3, 0, 3, 0, 1, 0, 0, 0, 3, 0, 0, 1, 1, 0, 3, 0, 0, 3, 1, 3, 0, 3, 0, 1, 0, 1, 0, 0, 3, 0, 0, 1, 1, 0, 1, 1, 1, 1, 3, 3];

%%Probabilities:
probabilities=[|96,2,0,2,|2,43,0,55,|44,32,0,24,|85,14,0,1,|56,28,0,16,|33,62,0,5,|31,19,0,50,|75,9,0,16,|91,4,0,5,|39,13,0,48,|88,2,0,10,|95,0,0,5,|90,4,0,6,|42,53,0,5,|18,57,0,25,|72,4,0,24,|53,37,0,10,|35,9,0,56,|25,22,0,53,|73,9,0,18,|46,1,0,53,|92,2,0,6,|29,19,0,52,|75,22,0,3,|79,12,0,9,|30,40,0,30,|94,5,0,1,|6,42,0,52,|41,32,0,27,|40,12,0,48,|99,1,0,0,|80,14,0,6,|7,85,0,8,|53,19,0,28,|34,51,0,15,|99,1,0,0,|79,0,0,21,|51,4,0,45,|63,3,0,34,|28,45,0,27,|100,0,0,0,|81,1,0,18,|8,79,0,13,|93,5,0,2,|17,82,0,1,|7,0,0,93,|25,18,0,57,|62,14,0,24,|33,12,0,55,|87,11,0,2,|76,16,0,8,|3,2,0,95,|100,0,0,0,|96,2,0,2,|39,58,0,3,|9,6,0,85,|72,1,0,27,|5,35,0,60,|46,50,0,4,|4,88,0,8,|50,49,0,1,|31,67,0,2,|93,1,0,6,|36,20,0,44,|46,17,0,37,|5,8,0,87,|62,6,0,32,|5,88,0,7,|30,44,0,26,|52,43,0,5,|47,12,0,41,|39,31,0,30,|65,1,0,34,|16,21,0,63,|35,39,0,26,|27,61,0,12,|78,6,0,16,|61,37,0,2,|12,24,0,64,|97,2,0,1,|72,27,0,1,|12,19,0,69,|95,5,0,0,|68,24,0,8,|68,31,0,1,|35,62,0,3,|48,4,0,48,|93,5,0,2,|66,25,0,9,|75,13,0,12,|98,1,0,1,|61,14,0,25,|79,7,0,14,|22,54,0,24,|99,0,0,1,|41,5,0,54,|77,11,0,12,|57,13,0,30,|82,7,0,11,|2,76,0,22,|52,46,0,2,|9,73,0,18,|30,44,0,26,|51,45,0,4,|95,4,0,1,|87,6,0,7,|81,13,0,6,|77,7,0,16,|26,32,0,42,|97,3,0,0,|52,30,0,18,|78,2,0,20,|51,10,0,39,|50,42,0,8,|8,61,0,31,|65,25,0,10,|64,13,0,23,|78,16,0,6,|29,55,0,16,|0,69,0,31,|];


%POSITION CONSTRAINTS
%%[|teamID, operator, position|...]
%%operators index:
%%%1 for =  operator
%%%2 for >  operator
%%%3 for >= operator
%%%4 for <  operator
%%%5 for <= operator

positionConstraints=[|13,1,17|8,1,6|];

%SCORE VECTOR CONSTRAINTS
%%[|teamID, operator, wantedPoints|...]
%%operators index:
%%%1 for =  operator
%%%2 for >  operator
%%%3 for >= operator
%%%4 for <  operator
%%%5 for <= operator

%scoreVectorConstraints=[|13,1,33|8,1,50|];

%Instance Features:
%features=T,FP,TF,C,C/T,C/TF,FP/TF,FP/T,FP*C/T,FP*T/C,(C/T)*(FP/TF),Distance,Distance/C,Distance/T,Distance/(C*T)
%values=20,12,38,2,0.1,0.05263157894736842,0.3157894736842105,0.6,1.2,120.0,0.03157894736842105,3,1.5,0.15,0.075



